150 175 121837
78 64 52 79 66 81 91 66 91 96 40 76 63 86 93 95 70 66 84 51 34 77 44 76 50 36 38 75 77 50 80 61 31 39 63
44 70 70 100 60 39 94 56 50 68 112 106 35 60 84 92 57 71 78 67 89 87 66 76 45 66 66 39 103 45 107 54 95 67 102
3432 4480 3640 7900 3960 3159 8554 3696 4550 6528 4480 8056 2205 5160 7812 8740 3990 4686 6552 3417 3026 6699 2904 5776 2250 2376 2508 2925 7931 2250 8560 3294 2945 2613 6426
3670 4081 4229 8950 5203 3319 11396 3771 4951 6048 5496 10128 2044 6658 9439 10097 5203 5741 7453 3789 2657 8147 3652 6140 2708 2458 2883 3360 8823 2319 10794 3209 3807 3127 7088
